ATOMIC_SPECIES
Li    6.940  Li.upf

NUMERICAL_ORBITAL
Li_DZP/Li_gga_7au_100Ry_4s1p.orb

LATTICE_CONSTANT
1.8897268777

LATTICE_VECTORS
4.881838000000  0.000000000000  0.000000000000
0.000000000000  4.881838000000  0.000000000000
0.000000000000  0.000000000000  4.881838000000

ATOMIC_POSITIONS
Direct

Li
0.000
16
0.073617000000  0.073617000000  0.073617000000  1  1  1  mag  0.0
0.426383000000  0.926383000000  0.573617000000  1  1  1  mag  0.0
0.926383000000  0.573617000000  0.426383000000  1  1  1  mag  0.0
0.573617000000  0.426383000000  0.926383000000  1  1  1  mag  0.0
0.323617000000  0.323617000000  0.323617000000  1  1  1  mag  0.0
0.176383000000  0.676383000000  0.823617000000  1  1  1  mag  0.0
0.823617000000  0.176383000000  0.676383000000  1  1  1  mag  0.0
0.676383000000  0.823617000000  0.176383000000  1  1  1  mag  0.0
0.573617000000  0.573617000000  0.573617000000  1  1  1  mag  0.0
0.926383000000  0.426383000000  0.073617000000  1  1  1  mag  0.0
0.426383000000  0.073617000000  0.926383000000  1  1  1  mag  0.0
0.073617000000  0.926383000000  0.426383000000  1  1  1  mag  0.0
0.823617000000  0.823617000000  0.823617000000  1  1  1  mag  0.0
0.676383000000  0.176383000000  0.323617000000  1  1  1  mag  0.0
0.323617000000  0.676383000000  0.176383000000  1  1  1  mag  0.0
0.176383000000  0.323617000000  0.676383000000  1  1  1  mag  0.0

